clingo version 4.5.3
Reading from ../test.lp
Solving...
Answer: 1
yes
SATISFIABLE

Models       : 1+
Calls        : 1
Time         : 0.005s (Solving: 0.00s 1st Model: 0.00s Unsat: 0.00s)
CPU Time     : 0.000s
